unknown 440 2 440 100000000
2 2 2 2 2 2 2 2 2 2 2 2 2 2 2 2 2 2 2 2 2 2 2 2 2 2 2 2 2 2 2 2 2 2 2 2 2 2 2 2 2 2 2 2 2 2 2 2 2 2 2 2 2 2 2 2 2 2 2 2 2 2 2 2 2 2 2 2 2 2 2 2 2 2 2 2 2 2 2 2 2 2 2 2 2 2 2 2 2 2 2 2 2 2 2 2 2 2 2 2 2 2 2 2 2 2 2 2 2 2 2 2 2 2 2 2 2 2 2 2 2 2 2 2 2 2 2 2 2 2 2 2 2 2 2 2 2 2 2 2 2 2 2 2 2 2 2 2 2 2 2 2 2 2 2 2 2 2 2 2 2 2 2 2 2 2 2 2 2 2 2 2 2 2 2 2 2 2 2 2 2 2 2 2 2 2 2 2 2 2 2 2 2 2 2 2 2 2 2 2 2 2 2 2 2 2 2 2 2 2 2 2 2 2 2 2 2 2 2 2 2 2 2 2 2 2 2 2 2 2 2 2 2 2 2 2 2 2 2 2 2 2 2 2 2 2 2 2 2 2 2 2 2 2 2 2 2 2 2 2 2 2 2 2 2 2 2 2 2 2 2 2 2 2 2 2 2 2 2 2 2 2 2 2 2 2 2 2 2 2 2 2 2 2 2 2 2 2 2 2 2 2 2 2 2 2 2 2 2 2 2 2 2 2 2 2 2 2 2 2 2 2 2 2 2 2 2 2 2 2 2 2 2 2 2 2 2 2 2 2 2 2 2 2 2 2 2 2 2 2 2 2 2 2 2 2 2 2 2 2 2 2 2 2 2 2 2 2 2 2 2 2 2 2 2 2 2 2 2 2 2 2 2 2 2 2 2 2 2 2 2 2 2 2 2 2 2 2 2 2 2 2 2 2 2 2 2 2 2 2 2 2 2 2 2 2 2 2 2 2 2 2 2 2 2 2 2 2 2 2 2 2 2 2 2 2 2 2 2 2
1 0 0 1
1 1
1 1 0 1
0 8
1 2 0 2
0 9
1 7
1 3 0 1
0 8
1 4 0 2
0 3
1 7
1 5 0 2
0 5
1 8
1 6 0 2
0 3
1 3
2 109 7 0 2
0 0 100
1 1 100
3 419 125 8 0 4
0 0 1 100
0 1 1 100
1 0 1 100
1 1 0 100
3 158 246 9 0 4
0 0 1 100
0 1 0 100
1 0 0 100
1 1 0 100
3 120 179 10 0 4
0 0 1 100
0 1 1 100
1 0 1 100
1 1 0 100
3 120 199 11 0 4
0 0 1 100
0 1 1 100
1 0 1 100
1 1 0 100
3 414 134 12 0 4
0 0 1 100
0 1 0 100
1 0 0 100
1 1 0 100
3 413 123 13 0 4
0 0 1 100
0 1 1 100
1 0 1 100
1 1 0 100
3 249 294 14 0 4
0 0 1 100
0 1 1 100
1 0 1 100
1 1 0 100
3 89 108 15 0 4
0 0 1 100
0 1 0 100
1 0 0 100
1 1 0 100
3 417 414 16 0 4
0 0 1 100
0 1 0 100
1 0 0 100
1 1 0 100
3 104 151 17 0 4
0 0 1 100
0 1 1 100
1 0 1 100
1 1 0 100
3 223 260 18 0 4
0 0 1 100
0 1 1 100
1 0 1 100
1 1 0 100
3 414 169 19 0 4
0 0 1 100
0 1 1 100
1 0 1 100
1 1 0 100
3 223 256 20 0 4
0 0 1 100
0 1 1 100
1 0 1 100
1 1 0 100
3 414 268 21 0 4
0 0 1 100
0 1 0 100
1 0 0 100
1 1 0 100
3 302 303 22 0 4
0 0 1 100
0 1 0 100
1 0 0 100
1 1 0 100
3 439 301 23 0 4
0 0 1 100
0 1 1 100
1 0 1 100
1 1 0 100
3 120 286 24 0 4
0 0 1 100
0 1 1 100
1 0 1 100
1 1 0 100
4 235 328 327 25 0 8
0 0 0 0 100
0 0 1 0 100
0 1 0 0 100
0 1 1 0 100
1 0 0 0 100
1 0 1 0 100
1 1 0 0 100
1 1 1 1 100
3 438 170 26 0 4
0 0 1 100
0 1 1 100
1 0 1 100
1 1 0 100
3 434 193 27 0 4
0 0 1 100
0 1 1 100
1 0 1 100
1 1 0 100
3 414 123 28 0 4
0 0 1 100
0 1 1 100
1 0 1 100
1 1 0 100
3 108 169 29 0 4
0 0 1 100
0 1 1 100
1 0 1 100
1 1 0 100
3 100 172 30 0 4
0 0 1 100
0 1 1 100
1 0 1 100
1 1 0 100
3 106 191 31 0 4
0 0 1 100
0 1 0 100
1 0 0 100
1 1 0 100
3 430 238 32 0 4
0 0 1 100
0 1 0 100
1 0 0 100
1 1 0 100
3 429 304 33 0 4
0 0 1 100
0 1 0 100
1 0 0 100
1 1 0 100
3 419 287 34 0 4
0 0 1 100
0 1 0 100
1 0 0 100
1 1 0 100
3 420 288 35 0 4
0 0 1 100
0 1 0 100
1 0 0 100
1 1 0 100
3 165 293 36 0 4
0 0 1 100
0 1 1 100
1 0 1 100
1 1 0 100
3 306 307 37 0 4
0 0 1 100
0 1 0 100
1 0 0 100
1 1 0 100
3 105 229 38 0 4
0 0 1 100
0 1 0 100
1 0 0 100
1 1 0 100
3 106 305 39 0 4
0 0 1 100
0 1 1 100
1 0 1 100
1 1 0 100
3 95 296 40 0 4
0 0 1 100
0 1 1 100
1 0 1 100
1 1 0 100
3 147 183 41 0 4
0 0 1 100
0 1 1 100
1 0 1 100
1 1 0 100
3 97 308 42 0 4
0 0 1 100
0 1 1 100
1 0 1 100
1 1 0 100
3 92 290 43 0 4
0 0 1 100
0 1 0 100
1 0 0 100
1 1 0 100
3 184 274 44 0 4
0 0 1 100
0 1 0 100
1 0 0 100
1 1 0 100
3 92 160 45 0 4
0 0 1 100
0 1 0 100
1 0 0 100
1 1 0 100
3 97 309 46 0 4
0 0 1 100
0 1 0 100
1 0 0 100
1 1 0 100
3 105 189 47 0 4
0 0 1 100
0 1 1 100
1 0 1 100
1 1 0 100
3 142 270 48 0 4
0 0 1 100
0 1 1 100
1 0 1 100
1 1 0 100
3 150 269 49 0 4
0 0 1 100
0 1 1 100
1 0 1 100
1 1 0 100
3 416 219 50 0 4
0 0 1 100
0 1 1 100
1 0 1 100
1 1 0 100
3 175 190 51 0 4
0 0 1 100
0 1 1 100
1 0 1 100
1 1 0 100
3 88 228 52 0 4
0 0 1 100
0 1 1 100
1 0 1 100
1 1 0 100
3 433 291 53 0 4
0 0 1 100
0 1 1 100
1 0 1 100
1 1 0 100
3 414 311 54 0 4
0 0 1 100
0 1 1 100
1 0 1 100
1 1 0 100
3 92 123 55 0 4
0 0 1 100
0 1 1 100
1 0 1 100
1 1 0 100
3 144 284 56 0 4
0 0 1 100
0 1 1 100
1 0 1 100
1 1 0 100
3 242 256 57 0 4
0 0 1 100
0 1 1 100
1 0 1 100
1 1 0 100
3 93 163 58 0 4
0 0 1 100
0 1 1 100
1 0 1 100
1 1 0 100
3 430 163 59 0 4
0 0 1 100
0 1 1 100
1 0 1 100
1 1 0 100
3 92 172 60 0 4
0 0 1 100
0 1 1 100
1 0 1 100
1 1 0 100
3 197 265 61 0 4
0 0 1 100
0 1 1 100
1 0 1 100
1 1 0 100
3 142 193 62 0 4
0 0 1 100
0 1 1 100
1 0 1 100
1 1 0 100
3 135 156 63 0 4
0 0 1 100
0 1 1 100
1 0 1 100
1 1 0 100
3 92 167 64 0 4
0 0 1 100
0 1 1 100
1 0 1 100
1 1 0 100
3 164 231 65 0 4
0 0 0 100
0 1 0 100
1 0 0 100
1 1 1 100
3 226 245 66 0 4
0 0 1 100
0 1 0 100
1 0 0 100
1 1 0 100
3 277 298 67 0 4
0 0 1 100
0 1 0 100
1 0 0 100
1 1 0 100
3 264 299 68 0 4
0 0 1 100
0 1 0 100
1 0 0 100
1 1 0 100
3 136 194 69 0 4
0 0 1 100
0 1 0 100
1 0 0 100
1 1 0 100
3 250 279 70 0 4
0 0 1 100
0 1 0 100
1 0 0 100
1 1 0 100
3 216 274 71 0 4
0 0 1 100
0 1 0 100
1 0 0 100
1 1 0 100
3 227 244 72 0 4
0 0 1 100
0 1 0 100
1 0 0 100
1 1 0 100
2 191 73 0 2
0 0 100
1 1 100
3 329 330 74 0 4
0 0 0 100
0 1 0 100
1 0 0 100
1 1 1 100
3 379 331 75 0 4
0 0 0 100
0 1 0 100
1 0 0 100
1 1 1 100
2 124 76 0 2
0 0 100
1 1 100
2 111 77 0 2
0 0 100
1 1 100
2 112 78 0 2
0 0 100
1 1 100
3 160 124 79 0 4
0 0 0 100
0 1 0 100
1 0 0 100
1 1 1 100
4 351 374 372 80 0 8
0 0 0 0 100
0 0 1 0 100
0 1 0 0 100
0 1 1 0 100
1 0 0 0 100
1 0 1 0 100
1 1 0 0 100
1 1 1 1 100
2 113 81 0 2
0 0 100
1 1 100
4 338 341 340 82 0 8
0 0 0 0 100
0 0 1 0 100
0 1 0 0 100
0 1 1 0 100
1 0 0 0 100
1 0 1 0 100
1 1 0 0 100
1 1 1 1 100
5 344 342 343 239 83 0 16
0 0 0 0 0 100
0 0 0 1 0 100
0 0 1 0 0 100
0 0 1 1 0 100
0 1 0 0 0 100
0 1 0 1 0 100
0 1 1 0 0 100
0 1 1 1 0 100
1 0 0 0 0 100
1 0 0 1 0 100
1 0 1 0 0 100
1 0 1 1 0 100
1 1 0 0 0 100
1 1 0 1 0 100
1 1 1 0 0 100
1 1 1 1 1 100
2 116 84 0 2
0 0 100
1 1 100
3 412 126 85 0 4
0 0 0 100
0 1 1 100
1 0 1 100
1 1 1 100
3 382 370 86 0 4
0 0 0 100
0 1 0 100
1 0 0 100
1 1 1 100
2 117 87 0 2
0 0 100
1 1 100
2 418 88 0 2
0 0 100
1 1 100
2 420 89 0 2
0 0 100
1 1 100
2 417 90 0 2
0 0 100
1 1 100
2 419 91 0 2
0 0 100
1 1 100
2 402 92 0 2
0 0 100
1 1 100
2 436 93 0 2
0 0 100
1 1 100
3 412 98 94 0 4
0 0 0 100
0 1 1 100
1 0 1 100
1 1 1 100
2 438 95 0 2
0 0 100
1 1 100
2 439 96 0 2
0 0 100
1 1 100
2 4 97 0 2
0 0 100
1 1 100
2 3 98 0 2
0 0 100
1 1 100
2 434 99 0 2
0 0 100
1 1 100
2 433 100 0 2
0 0 100
1 1 100
2 432 101 0 2
0 0 100
1 1 100
2 431 102 0 2
0 0 100
1 1 100
3 412 3 103 0 4
0 0 0 100
0 1 1 100
1 0 1 100
1 1 1 100
2 430 104 0 2
0 0 100
1 1 100
2 429 105 0 2
0 0 100
1 1 100
2 416 106 0 2
0 0 100
1 1 100
2 415 107 0 2
0 0 100
1 1 100
2 414 108 0 2
0 0 100
1 1 100
3 369 378 109 0 4
0 0 0 100
0 1 1 100
1 0 1 100
1 1 1 100
4 101 431 210 110 0 8
0 0 0 0 100
0 0 1 1 100
0 1 0 1 100
0 1 1 1 100
1 0 0 1 100
1 0 1 1 100
1 1 0 1 100
1 1 1 1 100
4 186 333 332 111 0 8
0 0 0 0 100
0 0 1 1 100
0 1 0 1 100
0 1 1 1 100
1 0 0 1 100
1 0 1 1 100
1 1 0 1 100
1 1 1 1 100
4 163 335 334 112 0 8
0 0 0 0 100
0 0 1 1 100
0 1 0 1 100
0 1 1 1 100
1 0 0 1 100
1 0 1 1 100
1 1 0 1 100
1 1 1 1 100
4 163 337 336 113 0 8
0 0 0 0 100
0 0 1 1 100
0 1 0 1 100
0 1 1 1 100
1 0 0 1 100
1 0 1 1 100
1 1 0 1 100
1 1 1 1 100
3 356 357 114 0 4
0 0 0 100
0 1 0 100
1 0 0 100
1 1 1 100
3 383 146 115 0 4
0 0 0 100
0 1 0 100
1 0 0 100
1 1 1 100
3 346 381 116 0 4
0 0 0 100
0 1 1 100
1 0 1 100
1 1 1 100
3 349 350 117 0 4
0 0 0 100
0 1 1 100
1 0 1 100
1 1 1 100
4 366 368 367 118 0 8
0 0 0 0 100
0 0 1 1 100
0 1 0 1 100
0 1 1 1 100
1 0 0 1 100
1 0 1 1 100
1 1 0 1 100
1 1 1 1 100
3 96 262 119 0 4
0 0 0 100
0 1 1 100
1 0 1 100
1 1 1 100
3 4 3 120 0 4
0 0 0 100
0 1 0 100
1 0 0 100
1 1 1 100
3 384 100 121 0 4
0 0 0 100
0 1 0 100
1 0 0 100
1 1 1 100
3 248 259 122 0 4
0 0 0 100
0 1 0 100
1 0 0 100
1 1 1 100
2 124 123 0 2
0 0 100
1 1 100
4 433 105 206 124 0 8
0 0 0 0 100
0 0 1 0 100
0 1 0 0 100
0 1 1 0 100
1 0 0 0 100
1 0 1 0 100
1 1 0 0 100
1 1 1 1 100
3 385 386 125 0 4
0 0 0 100
0 1 1 100
1 0 1 100
1 1 1 100
3 4 3 126 0 4
0 0 0 100
0 1 1 100
1 0 1 100
1 1 1 100
2 126 127 0 2
0 0 100
1 1 100
4 312 259 275 128 0 8
0 0 0 0 100
0 0 1 1 100
0 1 0 1 100
0 1 1 1 100
1 0 0 1 100
1 0 1 1 100
1 1 0 1 100
1 1 1 1 100
2 128 129 0 2
0 0 100
1 1 100
3 438 246 130 0 4
0 0 0 100
0 1 0 100
1 0 0 100
1 1 1 100
2 130 131 0 2
0 0 100
1 1 100
3 387 388 132 0 4
0 0 0 100
0 1 1 100
1 0 1 100
1 1 1 100
3 100 106 133 0 4
0 0 0 100
0 1 0 100
1 0 0 100
1 1 1 100
3 233 150 134 0 4
0 0 0 100
0 1 0 100
1 0 0 100
1 1 1 100
3 389 208 135 0 4
0 0 0 100
0 1 0 100
1 0 0 100
1 1 1 100
2 135 136 0 2
0 0 100
1 1 100
3 390 391 137 0 4
0 0 0 100
0 1 0 100
1 0 0 100
1 1 1 100
2 137 138 0 2
0 0 100
1 1 100
2 140 139 0 2
0 0 100
1 1 100
4 99 176 240 140 0 8
0 0 0 0 100
0 0 1 0 100
0 1 0 0 100
0 1 1 0 100
1 0 0 0 100
1 0 1 0 100
1 1 0 0 100
1 1 1 1 100
2 142 141 0 2
0 0 100
1 1 100
3 418 420 142 0 4
0 0 0 100
0 1 0 100
1 0 0 100
1 1 1 100
3 432 176 143 0 4
0 0 0 100
0 1 1 100
1 0 1 100
1 1 1 100
3 119 155 144 0 4
0 0 0 100
0 1 1 100
1 0 1 100
1 1 1 100
3 125 237 145 0 4
0 0 0 100
0 1 1 100
1 0 1 100
1 1 1 100
2 145 146 0 2
0 0 100
1 1 100
3 141 392 147 0 4
0 0 0 100
0 1 1 100
1 0 1 100
1 1 1 100
3 158 277 148 0 4
0 0 0 100
0 1 1 100
1 0 1 100
1 1 1 100
2 148 149 0 2
0 0 100
1 1 100
3 417 419 150 0 4
0 0 0 100
0 1 0 100
1 0 0 100
1 1 1 100
2 152 151 0 2
0 0 100
1 1 100
4 418 203 271 152 0 8
0 0 0 0 100
0 0 1 0 100
0 1 0 0 100
0 1 1 0 100
1 0 0 0 100
1 0 1 0 100
1 1 0 0 100
1 1 1 1 100
3 393 394 153 0 4
0 0 0 100
0 1 0 100
1 0 0 100
1 1 1 100
3 429 185 154 0 4
0 0 0 100
0 1 1 100
1 0 1 100
1 1 1 100
2 154 155 0 2
0 0 100
1 1 100
4 97 166 267 156 0 8
0 0 0 0 100
0 0 1 1 100
0 1 0 1 100
0 1 1 1 100
1 0 0 1 100
1 0 1 1 100
1 1 0 1 100
1 1 1 1 100
4 429 133 180 157 0 8
0 0 0 0 100
0 0 1 1 100
0 1 0 1 100
0 1 1 1 100
1 0 0 1 100
1 0 1 1 100
1 1 0 1 100
1 1 1 1 100
2 157 158 0 2
0 0 100
1 1 100
2 160 159 0 2
0 0 100
1 1 100
3 102 169 160 0 4
0 0 0 100
0 1 0 100
1 0 0 100
1 1 1 100
3 395 396 161 0 4
0 0 0 100
0 1 0 100
1 0 0 100
1 1 1 100
3 397 225 162 0 4
0 0 0 100
0 1 0 100
1 0 0 100
1 1 1 100
3 105 238 163 0 4
0 0 0 100
0 1 1 100
1 0 1 100
1 1 1 100
2 163 164 0 2
0 0 100
1 1 100
3 3 202 165 0 4
0 0 0 100
0 1 1 100
1 0 1 100
1 1 1 100
2 165 166 0 2
0 0 100
1 1 100
2 168 167 0 2
0 0 100
1 1 100
3 432 177 168 0 4
0 0 0 100
0 1 0 100
1 0 0 100
1 1 1 100
4 99 416 241 169 0 8
0 0 0 0 100
0 0 1 1 100
0 1 0 1 100
0 1 1 1 100
1 0 0 1 100
1 0 1 1 100
1 1 0 1 100
1 1 1 1 100
4 119 185 246 170 0 8
0 0 0 0 100
0 0 1 1 100
0 1 0 1 100
0 1 1 1 100
1 0 0 1 100
1 0 1 1 100
1 1 0 1 100
1 1 1 1 100
3 431 104 171 0 4
0 0 0 100
0 1 1 100
1 0 1 100
1 1 1 100
3 122 224 172 0 4
0 0 0 100
0 1 1 100
1 0 1 100
1 1 1 100
2 174 173 0 2
0 0 100
1 1 100
3 431 399 174 0 4
0 0 0 100
0 1 1 100
1 0 1 100
1 1 1 100
3 106 107 175 0 4
0 0 0 100
0 1 0 100
1 0 0 100
1 1 1 100
4 429 127 150 176 0 8
0 0 0 0 100
0 0 1 1 100
0 1 0 1 100
0 1 1 1 100
1 0 0 1 100
1 0 1 1 100
1 1 0 1 100
1 1 1 1 100
3 104 198 177 0 4
0 0 0 100
0 1 1 100
1 0 1 100
1 1 1 100
2 177 178 0 2
0 0 100
1 1 100
2 180 179 0 2
0 0 100
1 1 100
3 108 206 180 0 4
0 0 0 100
0 1 0 100
1 0 0 100
1 1 1 100
4 358 168 281 181 0 8
0 0 0 0 100
0 0 1 0 100
0 1 0 0 100
0 1 1 0 100
1 0 0 0 100
1 0 1 0 100
1 1 0 0 100
1 1 1 1 100
4 318 204 247 182 0 8
0 0 0 0 100
0 0 1 0 100
0 1 0 0 100
0 1 1 0 100
1 0 0 0 100
1 0 1 0 100
1 1 0 0 100
1 1 1 1 100
3 108 194 183 0 4
0 0 0 100
0 1 1 100
1 0 1 100
1 1 1 100
2 183 184 0 2
0 0 100
1 1 100
3 189 271 185 0 4
0 0 0 100
0 1 0 100
1 0 0 100
1 1 1 100
4 138 205 266 186 0 8
0 0 0 0 100
0 0 1 1 100
0 1 0 1 100
0 1 1 1 100
1 0 0 1 100
1 0 1 1 100
1 1 0 1 100
1 1 1 1 100
2 188 187 0 2
0 0 100
1 1 100
4 102 414 192 188 0 8
0 0 0 0 100
0 0 1 0 100
0 1 0 0 100
0 1 1 0 100
1 0 0 0 100
1 0 1 0 100
1 1 0 0 100
1 1 1 1 100
3 106 207 189 0 4
0 0 0 100
0 1 1 100
1 0 1 100
1 1 1 100
4 430 198 265 190 0 8
0 0 0 0 100
0 0 1 1 100
0 1 0 1 100
0 1 1 1 100
1 0 0 1 100
1 0 1 1 100
1 1 0 1 100
1 1 1 1 100
2 190 191 0 2
0 0 100
1 1 100
3 225 273 192 0 4
0 0 0 100
0 1 1 100
1 0 1 100
1 1 1 100
3 102 241 193 0 4
0 0 0 100
0 1 1 100
1 0 1 100
1 1 1 100
3 97 195 194 0 4
0 0 0 100
0 1 0 100
1 0 0 100
1 1 1 100
3 202 267 195 0 4
0 0 0 100
0 1 1 100
1 0 1 100
1 1 1 100
2 195 196 0 2
0 0 100
1 1 100
2 198 197 0 2
0 0 100
1 1 100
4 431 105 257 198 0 8
0 0 0 0 100
0 0 1 0 100
0 1 0 0 100
0 1 1 0 100
1 0 0 0 100
1 0 1 0 100
1 1 0 0 100
1 1 1 1 100
2 200 199 0 2
0 0 100
1 1 100
3 414 217 200 0 4
0 0 0 100
0 1 0 100
1 0 0 100
1 1 1 100
3 416 218 201 0 4
0 0 0 100
0 1 1 100
1 0 1 100
1 1 1 100
2 201 202 0 2
0 0 100
1 1 100
3 106 218 203 0 4
0 0 0 100
0 1 1 100
1 0 1 100
1 1 1 100
3 3 253 204 0 4
0 0 0 100
0 1 1 100
1 0 1 100
1 1 1 100
2 204 205 0 2
0 0 100
1 1 100
3 430 255 206 0 4
0 0 0 100
0 1 1 100
1 0 1 100
1 1 1 100
2 206 207 0 2
0 0 100
1 1 100
3 414 262 208 0 4
0 0 0 100
0 1 0 100
1 0 0 100
1 1 1 100
3 248 258 209 0 4
0 0 0 100
0 1 1 100
1 0 1 100
1 1 1 100
2 209 210 0 2
0 0 100
1 1 100
4 430 143 258 211 0 8
0 0 0 0 100
0 0 1 1 100
0 1 0 1 100
0 1 1 1 100
1 0 0 1 100
1 0 1 1 100
1 1 0 1 100
1 1 1 1 100
2 213 212 0 2
0 0 100
1 1 100
3 162 272 213 0 4
0 0 0 100
0 1 0 100
1 0 0 100
1 1 1 100
2 215 214 0 2
0 0 100
1 1 100
3 420 154 215 0 4
0 0 0 100
0 1 0 100
1 0 0 100
1 1 1 100
4 430 121 217 216 0 8
0 0 0 0 100
0 0 1 0 100
0 1 0 0 100
0 1 1 0 100
1 0 0 0 100
1 0 1 0 100
1 1 0 0 100
1 1 1 1 100
3 429 255 217 0 4
0 0 0 100
0 1 1 100
1 0 1 100
1 1 1 100
2 217 218 0 2
0 0 100
1 1 100
2 220 219 0 2
0 0 100
1 1 100
4 100 127 254 220 0 8
0 0 0 0 100
0 0 1 0 100
0 1 0 0 100
0 1 1 0 100
1 0 0 0 100
1 0 1 0 100
1 1 0 0 100
1 1 1 1 100
3 89 260 221 0 4
0 0 0 100
0 1 0 100
1 0 0 100
1 1 1 100
3 91 256 222 0 4
0 0 0 100
0 1 0 100
1 0 0 100
1 1 1 100
3 102 295 223 0 4
0 0 0 100
0 1 1 100
1 0 1 100
1 1 1 100
2 223 224 0 2
0 0 100
1 1 100
3 106 256 225 0 4
0 0 0 100
0 1 0 100
1 0 0 100
1 1 1 100
3 173 400 226 0 4
0 0 0 100
0 1 1 100
1 0 1 100
1 1 1 100
3 173 401 227 0 4
0 0 0 100
0 1 1 100
1 0 1 100
1 1 1 100
3 417 253 228 0 4
0 0 0 100
0 1 1 100
1 0 1 100
1 1 1 100
2 228 229 0 2
0 0 100
1 1 100
4 429 171 243 230 0 8
0 0 0 0 100
0 0 1 1 100
0 1 0 1 100
0 1 1 1 100
1 0 0 1 100
1 0 1 1 100
1 1 0 1 100
1 1 1 1 100
2 230 231 0 2
0 0 100
1 1 100
4 122 133 295 232 0 8
0 0 0 0 100
0 0 1 1 100
0 1 0 1 100
0 1 1 1 100
1 0 0 1 100
1 0 1 1 100
1 1 0 1 100
1 1 1 1 100
3 90 91 233 0 4
0 0 0 100
0 1 0 100
1 0 0 100
1 1 1 100
3 246 298 234 0 4
0 0 0 100
0 1 1 100
1 0 1 100
1 1 1 100
2 234 235 0 2
0 0 100
1 1 100
3 264 278 236 0 4
0 0 0 100
0 1 1 100
1 0 1 100
1 1 1 100
2 236 237 0 2
0 0 100
1 1 100
3 102 242 238 0 4
0 0 0 100
0 1 0 100
1 0 0 100
1 1 1 100
3 161 242 239 0 4
0 0 0 100
0 1 0 100
1 0 0 100
1 1 1 100
4 432 431 267 240 0 8
0 0 0 0 100
0 0 1 1 100
0 1 0 1 100
0 1 1 1 100
1 0 0 1 100
1 0 1 1 100
1 1 0 1 100
1 1 1 1 100
3 100 280 241 0 4
0 0 0 100
0 1 0 100
1 0 0 100
1 1 1 100
2 243 242 0 2
0 0 100
1 1 100
3 432 257 243 0 4
0 0 0 100
0 1 0 100
1 0 0 100
1 1 1 100
3 256 294 244 0 4
0 0 0 100
0 1 0 100
1 0 0 100
1 1 1 100
3 434 280 245 0 4
0 0 0 100
0 1 0 100
1 0 0 100
1 1 1 100
3 417 91 246 0 4
0 0 0 100
0 1 0 100
1 0 0 100
1 1 1 100
2 248 247 0 2
0 0 100
1 1 100
3 104 105 248 0 4
0 0 0 100
0 1 0 100
1 0 0 100
1 1 1 100
3 221 222 249 0 4
0 0 0 100
0 1 0 100
1 0 0 100
1 1 1 100
3 95 233 250 0 4
0 0 0 100
0 1 1 100
1 0 1 100
1 1 1 100
5 361 359 360 178 251 0 16
0 0 0 0 0 100
0 0 0 1 0 100
0 0 1 0 0 100
0 0 1 1 0 100
0 1 0 0 0 100
0 1 0 1 0 100
0 1 1 0 0 100
0 1 1 1 0 100
1 0 0 0 0 100
1 0 0 1 0 100
1 0 1 0 0 100
1 0 1 1 0 100
1 1 0 0 0 100
1 1 0 1 0 100
1 1 1 0 0 100
1 1 1 1 1 100
3 105 220 252 0 4
0 0 0 100
0 1 1 100
1 0 1 100
1 1 1 100
3 100 254 253 0 4
0 0 0 100
0 1 0 100
1 0 0 100
1 1 1 100
2 255 254 0 2
0 0 100
1 1 100
3 102 294 255 0 4
0 0 0 100
0 1 0 100
1 0 0 100
1 1 1 100
3 430 105 256 0 4
0 0 0 100
0 1 1 100
1 0 1 100
1 1 1 100
2 258 257 0 2
0 0 100
1 1 100
3 99 100 258 0 4
0 0 0 100
0 1 0 100
1 0 0 100
1 1 1 100
3 430 429 259 0 4
0 0 0 100
0 1 0 100
1 0 0 100
1 1 1 100
3 104 429 260 0 4
0 0 0 100
0 1 1 100
1 0 1 100
1 1 1 100
2 260 261 0 2
0 0 100
1 1 100
3 88 420 262 0 4
0 0 0 100
0 1 1 100
1 0 1 100
1 1 1 100
3 89 151 263 0 4
0 0 0 100
0 1 0 100
1 0 0 100
1 1 1 100
3 419 438 264 0 4
0 0 0 100
0 1 0 100
1 0 0 100
1 1 1 100
3 423 101 265 0 4
0 0 0 100
0 1 0 100
1 0 0 100
1 1 1 100
3 97 416 266 0 4
0 0 0 100
0 1 0 100
1 0 0 100
1 1 1 100
3 100 104 267 0 4
0 0 0 100
0 1 0 100
1 0 0 100
1 1 1 100
3 159 192 268 0 4
0 0 0 100
0 1 1 100
1 0 1 100
1 1 1 100
3 180 244 269 0 4
0 0 0 100
0 1 0 100
1 0 0 100
1 1 1 100
3 200 245 270 0 4
0 0 0 100
0 1 0 100
1 0 0 100
1 1 1 100
3 433 127 271 0 4
0 0 0 100
0 1 1 100
1 0 1 100
1 1 1 100
3 433 295 272 0 4
0 0 0 100
0 1 1 100
1 0 1 100
1 1 1 100
2 272 273 0 2
0 0 100
1 1 100
3 88 420 274 0 4
0 0 0 100
0 1 0 100
1 0 0 100
1 1 1 100
3 88 97 275 0 4
0 0 0 100
0 1 0 100
1 0 0 100
1 1 1 100
4 420 88 216 276 0 8
0 0 0 0 100
0 0 1 1 100
0 1 0 1 100
0 1 1 1 100
1 0 0 1 100
1 0 1 1 100
1 1 0 1 100
1 1 1 1 100
3 90 419 277 0 4
0 0 0 100
0 1 0 100
1 0 0 100
1 1 1 100
3 96 154 278 0 4
0 0 0 100
0 1 0 100
1 0 0 100
1 1 1 100
3 439 214 279 0 4
0 0 0 100
0 1 0 100
1 0 0 100
1 1 1 100
3 432 261 280 0 4
0 0 0 100
0 1 1 100
1 0 1 100
1 1 1 100
3 102 211 281 0 4
0 0 0 100
0 1 0 100
1 0 0 100
1 1 1 100
2 283 282 0 2
0 0 100
1 1 100
3 430 252 283 0 4
0 0 0 100
0 1 0 100
1 0 0 100
1 1 1 100
2 285 284 0 2
0 0 100
1 1 100
3 130 8 285 0 4
0 0 0 100
0 1 1 100
1 0 1 100
1 1 1 100
3 9 149 286 0 4
0 0 0 100
0 1 0 100
1 0 0 100
1 1 1 100
3 189 10 287 0 4
0 0 0 100
0 1 1 100
1 0 1 100
1 1 1 100
3 203 11 288 0 4
0 0 0 100
0 1 1 100
1 0 1 100
1 1 1 100
3 12 208 289 0 4
0 0 0 100
0 1 0 100
1 0 0 100
1 1 1 100
3 212 13 290 0 4
0 0 0 100
0 1 1 100
1 0 1 100
1 1 1 100
2 292 291 0 2
0 0 100
1 1 100
3 172 14 292 0 4
0 0 0 100
0 1 1 100
1 0 1 100
1 1 1 100
3 15 16 293 0 4
0 0 0 100
0 1 0 100
1 0 0 100
1 1 1 100
3 99 432 294 0 4
0 0 0 100
0 1 1 100
1 0 1 100
1 1 1 100
2 294 295 0 2
0 0 100
1 1 100
3 263 278 296 0 4
0 0 0 100
0 1 0 100
1 0 0 100
1 1 1 100
3 95 108 297 0 4
0 0 0 100
0 1 0 100
1 0 0 100
1 1 1 100
4 429 121 206 298 0 8
0 0 0 0 100
0 0 1 0 100
0 1 0 0 100
0 1 1 0 100
1 0 0 0 100
1 0 1 0 100
1 1 0 0 100
1 1 1 1 100
3 214 17 299 0 4
0 0 0 100
0 1 1 100
1 0 1 100
1 1 1 100
3 142 178 300 0 4
0 0 0 100
0 1 1 100
1 0 1 100
1 1 1 100
3 131 263 301 0 4
0 0 0 100
0 1 1 100
1 0 1 100
1 1 1 100
3 147 195 302 0 4
0 0 0 100
0 1 0 100
1 0 0 100
1 1 1 100
3 414 120 303 0 4
0 0 0 100
0 1 0 100
1 0 0 100
1 1 1 100
3 416 240 304 0 4
0 0 0 100
0 1 0 100
1 0 0 100
1 1 1 100
3 200 275 305 0 4
0 0 0 100
0 1 1 100
1 0 1 100
1 1 1 100
3 108 201 306 0 4
0 0 0 100
0 1 0 100
1 0 0 100
1 1 1 100
3 419 97 307 0 4
0 0 0 100
0 1 0 100
1 0 0 100
1 1 1 100
3 134 158 308 0 4
0 0 0 100
0 1 1 100
1 0 1 100
1 1 1 100
3 98 148 309 0 4
0 0 0 100
0 1 0 100
1 0 0 100
1 1 1 100
4 164 377 375 310 0 8
0 0 0 0 100
0 0 1 0 100
0 1 0 0 100
0 1 1 0 100
1 0 0 0 100
1 0 1 0 100
1 1 0 0 100
1 1 1 1 100
3 131 215 311 0 4
0 0 0 100
0 1 1 100
1 0 1 100
1 1 1 100
3 90 204 312 0 4
0 0 0 100
0 1 0 100
1 0 0 100
1 1 1 100
3 416 108 313 0 4
0 0 0 100
0 1 1 100
1 0 1 100
1 1 1 100
3 418 97 314 0 4
0 0 0 100
0 1 1 100
1 0 1 100
1 1 1 100
3 266 297 315 0 4
0 0 0 100
0 1 1 100
1 0 1 100
1 1 1 100
3 431 259 316 0 4
0 0 0 100
0 1 1 100
1 0 1 100
1 1 1 100
2 316 317 0 2
0 0 100
1 1 100
3 89 132 318 0 4
0 0 0 100
0 1 1 100
1 0 1 100
1 1 1 100
3 123 18 319 0 4
0 0 0 100
0 1 1 100
1 0 1 100
1 1 1 100
3 187 19 320 0 4
0 0 0 100
0 1 1 100
1 0 1 100
1 1 1 100
3 123 20 321 0 4
0 0 0 100
0 1 1 100
1 0 1 100
1 1 1 100
3 21 231 322 0 4
0 0 0 100
0 1 0 100
1 0 0 100
1 1 1 100
2 322 323 0 2
0 0 100
1 1 100
3 22 129 324 0 4
0 0 0 100
0 1 0 100
1 0 0 100
1 1 1 100
2 324 325 0 2
0 0 100
1 1 100
3 276 23 326 0 4
0 0 0 100
0 1 1 100
1 0 1 100
1 1 1 100
3 128 24 327 0 4
0 0 0 100
0 1 1 100
1 0 1 100
1 1 1 100
3 139 26 328 0 4
0 0 0 100
0 1 1 100
1 0 1 100
1 1 1 100
3 27 28 329 0 4
0 0 0 100
0 1 1 100
1 0 1 100
1 1 1 100
3 187 29 330 0 4
0 0 0 100
0 1 1 100
1 0 1 100
1 1 1 100
3 232 30 331 0 4
0 0 0 100
0 1 1 100
1 0 1 100
1 1 1 100
3 31 140 332 0 4
0 0 0 100
0 1 0 100
1 0 0 100
1 1 1 100
3 129 196 333 0 4
0 0 0 100
0 1 0 100
1 0 0 100
1 1 1 100
3 213 168 334 0 4
0 0 0 100
0 1 0 100
1 0 0 100
1 1 1 100
3 32 124 335 0 4
0 0 0 100
0 1 0 100
1 0 0 100
1 1 1 100
3 33 34 336 0 4
0 0 0 100
0 1 0 100
1 0 0 100
1 1 1 100
3 35 210 337 0 4
0 0 0 100
0 1 0 100
1 0 0 100
1 1 1 100
3 209 36 338 0 4
0 0 0 100
0 1 1 100
1 0 1 100
1 1 1 100
3 37 38 339 0 4
0 0 0 100
0 1 0 100
1 0 0 100
1 1 1 100
2 339 340 0 2
0 0 100
1 1 100
3 163 39 341 0 4
0 0 0 100
0 1 1 100
1 0 1 100
1 1 1 100
3 186 128 342 0 4
0 0 0 100
0 1 1 100
1 0 1 100
1 1 1 100
3 170 40 343 0 4
0 0 0 100
0 1 1 100
1 0 1 100
1 1 1 100
3 41 42 344 0 4
0 0 0 100
0 1 1 100
1 0 1 100
1 1 1 100
2 118 345 0 2
0 0 100
1 1 100
3 182 146 346 0 4
0 0 0 100
0 1 0 100
1 0 0 100
1 1 1 100
3 43 239 347 0 4
0 0 0 100
0 1 0 100
1 0 0 100
1 1 1 100
3 44 129 348 0 4
0 0 0 100
0 1 0 100
1 0 0 100
1 1 1 100
3 45 182 349 0 4
0 0 0 100
0 1 0 100
1 0 0 100
1 1 1 100
3 46 146 350 0 4
0 0 0 100
0 1 0 100
1 0 0 100
1 1 1 100
3 172 47 351 0 4
0 0 0 100
0 1 1 100
1 0 1 100
1 1 1 100
3 232 48 352 0 4
0 0 0 100
0 1 1 100
1 0 1 100
1 1 1 100
3 49 50 353 0 4
0 0 0 100
0 1 1 100
1 0 1 100
1 1 1 100
3 123 51 354 0 4
0 0 0 100
0 1 1 100
1 0 1 100
1 1 1 100
3 252 52 355 0 4
0 0 0 100
0 1 1 100
1 0 1 100
1 1 1 100
3 53 54 356 0 4
0 0 0 100
0 1 1 100
1 0 1 100
1 1 1 100
3 55 56 357 0 4
0 0 0 100
0 1 1 100
1 0 1 100
1 1 1 100
3 57 58 358 0 4
0 0 0 100
0 1 1 100
1 0 1 100
1 1 1 100
3 59 60 359 0 4
0 0 0 100
0 1 1 100
1 0 1 100
1 1 1 100
3 276 234 360 0 4
0 0 0 100
0 1 1 100
1 0 1 100
1 1 1 100
3 139 61 361 0 4
0 0 0 100
0 1 1 100
1 0 1 100
1 1 1 100
3 282 62 362 0 4
0 0 0 100
0 1 1 100
1 0 1 100
1 1 1 100
3 63 64 363 0 4
0 0 0 100
0 1 1 100
1 0 1 100
1 1 1 100
3 66 67 364 0 4
0 0 0 100
0 1 0 100
1 0 0 100
1 1 1 100
3 68 237 365 0 4
0 0 0 100
0 1 0 100
1 0 0 100
1 1 1 100
3 69 281 366 0 4
0 0 0 100
0 1 0 100
1 0 0 100
1 1 1 100
3 70 283 367 0 4
0 0 0 100
0 1 0 100
1 0 0 100
1 1 1 100
3 71 72 368 0 4
0 0 0 100
0 1 0 100
1 0 0 100
1 1 1 100
3 326 325 369 0 4
0 0 0 100
0 1 0 100
1 0 0 100
1 1 1 100
3 348 347 370 0 4
0 0 0 100
0 1 1 100
1 0 1 100
1 1 1 100
3 355 354 371 0 4
0 0 0 100
0 1 0 100
1 0 0 100
1 1 1 100
2 371 372 0 2
0 0 100
1 1 100
3 353 352 373 0 4
0 0 0 100
0 1 0 100
1 0 0 100
1 1 1 100
2 373 374 0 2
0 0 100
1 1 100
3 365 364 375 0 4
0 0 0 100
0 1 1 100
1 0 1 100
1 1 1 100
3 363 362 376 0 4
0 0 0 100
0 1 0 100
1 0 0 100
1 1 1 100
2 376 377 0 2
0 0 100
1 1 100
3 101 300 378 0 4
0 0 1 100
0 1 1 100
1 0 1 100
1 1 0 100
3 107 124 379 0 4
0 0 1 100
0 1 0 100
1 0 0 100
1 1 0 100
3 319 320 380 0 4
0 0 0 100
0 1 0 100
1 0 0 100
1 1 1 100
3 156 289 381 0 4
0 0 1 100
0 1 1 100
1 0 1 100
1 1 0 100
3 4 149 382 0 4
0 0 1 100
0 1 0 100
1 0 0 100
1 1 0 100
3 279 297 383 0 4
0 0 1 100
0 1 0 100
1 0 0 100
1 1 0 100
3 3 266 384 0 4
0 0 1 100
0 1 0 100
1 0 0 100
1 1 0 100
3 107 108 385 0 4
0 0 1 100
0 1 1 100
1 0 1 100
1 1 0 100
3 415 414 386 0 4
0 0 1 100
0 1 1 100
1 0 1 100
1 1 0 100
3 313 314 387 0 4
0 0 1 100
0 1 1 100
1 0 1 100
1 1 0 100
3 439 315 388 0 4
0 0 1 100
0 1 1 100
1 0 1 100
1 1 0 100
3 414 246 389 0 4
0 0 1 100
0 1 0 100
1 0 0 100
1 1 0 100
3 88 221 390 0 4
0 0 1 100
0 1 0 100
1 0 0 100
1 1 0 100
3 90 222 391 0 4
0 0 1 100
0 1 0 100
1 0 0 100
1 1 0 100
3 88 89 392 0 4
0 0 1 100
0 1 1 100
1 0 1 100
1 1 0 100
3 402 416 393 0 4
0 0 1 100
0 1 0 100
1 0 0 100
1 1 0 100
3 106 126 394 0 4
0 0 1 100
0 1 0 100
1 0 0 100
1 1 0 100
3 102 248 395 0 4
0 0 1 100
0 1 0 100
1 0 0 100
1 1 0 100
3 93 317 396 0 4
0 0 1 100
0 1 0 100
1 0 0 100
1 1 0 100
3 102 122 397 0 4
0 0 1 100
0 1 0 100
1 0 0 100
1 1 0 100
4 164 323 321 398 0 8
0 0 0 0 100
0 0 1 0 100
0 1 0 0 100
0 1 1 0 100
1 0 0 0 100
1 0 1 0 100
1 1 0 0 100
1 1 1 1 100
3 100 153 399 0 4
0 0 1 100
0 1 1 100
1 0 1 100
1 1 0 100
3 133 142 400 0 4
0 0 1 100
0 1 1 100
1 0 1 100
1 1 0 100
3 133 150 401 0 4
0 0 1 100
0 1 1 100
1 0 1 100
1 1 0 100
1 402 0 2
0 3
1 8
1 403 0 2
0 9
1 4
1 404 0 2
0 5
1 1
1 405 0 1
1 3
1 406 0 2
0 2
1 7
1 407 0 2
0 3
1 1
1 408 0 2
0 9
1 3
1 409 0 2
0 9
1 6
1 410 0 2
0 8
1 8
1 411 0 1
0 2
1 412 0 2
0 3
1 2
1 413 0 2
0 6
1 6
1 414 0 2
0 4
1 7
1 415 0 1
1 2
1 416 0 2
0 6
1 5
1 417 0 2
0 7
1 8
1 418 0 1
1 1
1 419 0 2
0 2
1 5
1 420 0 1
1 8
1 421 0 2
0 9
1 7
1 422 0 2
0 9
1 4
1 423 0 2
0 3
1 8
1 424 0 2
0 4
1 4
1 425 0 2
0 9
1 3
1 426 0 2
0 2
1 6
1 427 0 2
0 2
1 2
1 428 0 2
0 4
1 2
1 429 0 1
1 3
1 430 0 2
0 5
1 2
1 431 0 2
0 7
1 1
1 432 0 2
0 7
1 6
1 433 0 2
0 2
1 1
1 434 0 1
1 3
1 435 0 2
0 2
1 8
1 436 0 2
0 7
1 8
1 437 0 2
0 8
1 5
1 438 0 1
1 6
1 439 0 2
0 1
1 4
